% instance size is  20
nitems= 20 ;
capacity= 4623 ;
gain= [588, 915, 156, 273, 279, 630, 198, 633, 435, 993, 972, 15, 384, 822, 84, 642, 171, 471, 687, 6] ;
weight= [586, 915, 156, 272, 278, 629, 198, 632, 435, 991, 971, 15, 383, 822, 83, 640, 170, 470, 687, 6] ;
